c Result of efficient AIG-to-CNF conversion using package CNF
p cnf 16 38
-2 10 3 0
2 -10 0
2 -3 0
3 14 6 -7 0
3 -14 -4 -7 0
-3 7 0
-3 14 -6 0
-3 -14 4 0
-4 11 0
-4 12 5 0
-4 16 5 0
4 -11 -5 0
4 -11 -12 -16 0
-5 15 16 0
-5 13 15 0
5 -15 0
5 -13 -16 0
6 -15 0
6 -12 -13 -16 0
-6 15 16 0
-6 12 15 0
-6 13 15 0
7 13 -8 0
7 -16 -8 0
7 -12 -8 0
-7 8 0
-7 12 -13 16 0
8 -11 -9 0
8 13 16 -9 0
-8 9 0
-8 11 -13 0
-8 11 -16 0
9 16 -17 0
9 15 -17 0
-9 17 0
-9 -15 -16 0
-18 0
2 0

